param set_len = 56;
param target_sum = 19446639478;
param values := [1] 927842685 [2] 823865198 [3] 1053270276 [4] 666360181 [5] 674584467 [6] 55624114 [7] 247927004 [8] 832812862 [9] 308010248 [10] 839740664 [11] 953895121 [12] 981856741 [13] 590373439 [14] 245732139 [15] 974649202 [16] 732293669 [17] 632012339 [18] 900397128 [19] 728834933 [20] 809931981 [21] 720099786 [22] 12909419 [23] 817235840 [24] 846594649 [25] 961633878 [26] 829671754 [27] 892889727 [28] 208657303 [29] 957411344 [30] 830539767 [31] 589693756 [32] 583951991 [33] 181101754 [34] 245881625 [35] 898186486 [36] 694300409 [37] 907382344 [38] 559190835 [39] 560127822 [40] 907840077 [41] 630194831 [42] 992698906 [43] 150919943 [44] 594854205 [45] 746344262 [46] 884828719 [47] 922847633 [48] 518780720 [49] 661715076 [50] 939777196 [51] 732437439 [52] 857533931 [53] 757163347 [54] 433087048 [55] 1018360600 [56] 266842318 ;
